p cnf 10 23
10 9 8 0
10 9 6 0
-10 -8 -5 0
-10 -8 -3 0
10 8 3 0
-10 -7 -5 0
-10 -7 1 0
-10 -6 -5 0
10 6 -1 0
-9 -8 -2 0
9 7 -4 0
-9 -4 3 0
-9 2 1 0
-8 7 4 0
8 6 5 0
-8 5 4 0
8 5 3 0
-8 -4 -3 0
-8 4 -1 0
-7 6 -3 0
7 -3 1 0
6 5 4 0
-6 3 -1 0
